(set-logic HORN)
(declare-datatypes ((Nat_1 0)) (((Z_0 ) (S_0 (unS_0 Nat_1)))))
(declare-fun diseqNat_0 (Nat_1 Nat_1) Bool)
(declare-fun unS_1 (Nat_1 Nat_1) Bool)
(declare-fun isZ_0 (Nat_1) Bool)
(declare-fun isS_0 (Nat_1) Bool)
(assert (forall ((x_45 Nat_1) (x_44 Nat_1))
	(=> (= x_45 (S_0 x_44))
	    (unS_1 x_44 x_45))))
(assert (isZ_0 Z_0))
(assert (forall ((x_46 Nat_1))
	(isS_0 (S_0 x_46))))
(assert (forall ((x_47 Nat_1))
	(diseqNat_0 Z_0 (S_0 x_47))))
(assert (forall ((x_48 Nat_1))
	(diseqNat_0 (S_0 x_48) Z_0)))
(assert (forall ((x_49 Nat_1) (x_50 Nat_1))
	(=> (diseqNat_0 x_49 x_50)
	    (diseqNat_0 (S_0 x_49) (S_0 x_50)))))
(declare-fun add_0 (Nat_1 Nat_1 Nat_1) Bool)
(declare-fun minus_0 (Nat_1 Nat_1 Nat_1) Bool)
(declare-fun le_0 (Nat_1 Nat_1) Bool)
(declare-fun ge_0 (Nat_1 Nat_1) Bool)
(declare-fun lt_0 (Nat_1 Nat_1) Bool)
(declare-fun gt_0 (Nat_1 Nat_1) Bool)
(declare-fun mult_0 (Nat_1 Nat_1 Nat_1) Bool)
(declare-fun div_0 (Nat_1 Nat_1 Nat_1) Bool)
(declare-fun mod_0 (Nat_1 Nat_1 Nat_1) Bool)
(assert (forall ((y_9 Nat_1))
	(add_0 y_9 Z_0 y_9)))
(assert (forall ((x_42 Nat_1) (y_9 Nat_1) (r_0 Nat_1))
	(=> (add_0 r_0 x_42 y_9)
	    (add_0 (S_0 r_0) (S_0 x_42) y_9))))
(assert (forall ((y_9 Nat_1))
	(minus_0 Z_0 Z_0 y_9)))
(assert (forall ((x_42 Nat_1) (y_9 Nat_1) (r_0 Nat_1))
	(=> (minus_0 r_0 x_42 y_9)
	    (minus_0 (S_0 r_0) (S_0 x_42) y_9))))
(assert (forall ((y_9 Nat_1))
	(le_0 Z_0 y_9)))
(assert (forall ((x_42 Nat_1) (y_9 Nat_1))
	(=> (le_0 x_42 y_9)
	    (le_0 (S_0 x_42) (S_0 y_9)))))
(assert (forall ((y_9 Nat_1))
	(ge_0 y_9 Z_0)))
(assert (forall ((x_42 Nat_1) (y_9 Nat_1))
	(=> (ge_0 x_42 y_9)
	    (ge_0 (S_0 x_42) (S_0 y_9)))))
(assert (forall ((y_9 Nat_1))
	(lt_0 Z_0 (S_0 y_9))))
(assert (forall ((x_42 Nat_1) (y_9 Nat_1))
	(=> (lt_0 x_42 y_9)
	    (lt_0 (S_0 x_42) (S_0 y_9)))))
(assert (forall ((y_9 Nat_1))
	(gt_0 (S_0 y_9) Z_0)))
(assert (forall ((x_42 Nat_1) (y_9 Nat_1))
	(=> (gt_0 x_42 y_9)
	    (gt_0 (S_0 x_42) (S_0 y_9)))))
(assert (forall ((y_9 Nat_1))
	(mult_0 Z_0 Z_0 y_9)))
(assert (forall ((x_42 Nat_1) (y_9 Nat_1) (r_0 Nat_1) (z_4 Nat_1))
	(=>	(and (mult_0 r_0 x_42 y_9)
			(add_0 z_4 r_0 y_9))
		(mult_0 z_4 (S_0 x_42) y_9))))
(assert (forall ((x_42 Nat_1) (y_9 Nat_1))
	(=> (lt_0 x_42 y_9)
	    (div_0 Z_0 x_42 y_9))))
(assert (forall ((x_42 Nat_1) (y_9 Nat_1) (r_0 Nat_1) (z_4 Nat_1))
	(=>	(and (ge_0 x_42 y_9)
			(minus_0 z_4 x_42 y_9)
			(div_0 r_0 z_4 y_9))
		(div_0 (S_0 r_0) x_42 y_9))))
(assert (forall ((x_42 Nat_1) (y_9 Nat_1))
	(=> (lt_0 x_42 y_9)
	    (mod_0 x_42 x_42 y_9))))
(assert (forall ((x_42 Nat_1) (y_9 Nat_1) (r_0 Nat_1) (z_4 Nat_1))
	(=>	(and (ge_0 x_42 y_9)
			(minus_0 z_4 x_42 y_9)
			(mod_0 r_0 z_4 y_9))
		(mod_0 r_0 x_42 y_9))))
(declare-datatypes ((pair_0 0)) (((pair_1 (projpair_0 Nat_1) (projpair_1 Nat_1)))))
(declare-fun diseqpair_0 (pair_0 pair_0) Bool)
(declare-fun projpair_2 (Nat_1 pair_0) Bool)
(declare-fun projpair_3 (Nat_1 pair_0) Bool)
(declare-fun ispair_0 (pair_0) Bool)
(assert (forall ((x_53 pair_0) (x_51 Nat_1) (x_52 Nat_1))
	(=> (= x_53 (pair_1 x_51 x_52))
	    (projpair_2 x_51 x_53))))
(assert (forall ((x_53 pair_0) (x_51 Nat_1) (x_52 Nat_1))
	(=> (= x_53 (pair_1 x_51 x_52))
	    (projpair_3 x_52 x_53))))
(assert (forall ((x_54 Nat_1) (x_55 Nat_1))
	(ispair_0 (pair_1 x_54 x_55))))
(assert (forall ((x_56 Nat_1) (x_57 Nat_1) (x_58 Nat_1) (x_59 Nat_1))
	(=> (diseqNat_0 x_56 x_58)
	    (diseqpair_0 (pair_1 x_56 x_57) (pair_1 x_58 x_59)))))
(assert (forall ((x_56 Nat_1) (x_57 Nat_1) (x_58 Nat_1) (x_59 Nat_1))
	(=> (diseqNat_0 x_57 x_59)
	    (diseqpair_0 (pair_1 x_56 x_57) (pair_1 x_58 x_59)))))
(declare-datatypes ((list_0 0)) (((nil_0 ) (cons_0 (head_0 Nat_1) (tail_0 list_0)))))
(declare-fun diseqlist_0 (list_0 list_0) Bool)
(declare-fun head_2 (Nat_1 list_0) Bool)
(declare-fun tail_2 (list_0 list_0) Bool)
(declare-fun isnil_0 (list_0) Bool)
(declare-fun iscons_0 (list_0) Bool)
(assert (forall ((x_63 list_0) (x_61 Nat_1) (x_62 list_0))
	(=> (= x_63 (cons_0 x_61 x_62))
	    (head_2 x_61 x_63))))
(assert (forall ((x_63 list_0) (x_61 Nat_1) (x_62 list_0))
	(=> (= x_63 (cons_0 x_61 x_62))
	    (tail_2 x_62 x_63))))
(assert (isnil_0 nil_0))
(assert (forall ((x_64 Nat_1) (x_65 list_0))
	(iscons_0 (cons_0 x_64 x_65))))
(assert (forall ((x_66 Nat_1) (x_67 list_0))
	(diseqlist_0 nil_0 (cons_0 x_66 x_67))))
(assert (forall ((x_68 Nat_1) (x_69 list_0))
	(diseqlist_0 (cons_0 x_68 x_69) nil_0)))
(assert (forall ((x_70 Nat_1) (x_71 list_0) (x_72 Nat_1) (x_73 list_0))
	(=> (diseqNat_0 x_70 x_72)
	    (diseqlist_0 (cons_0 x_70 x_71) (cons_0 x_72 x_73)))))
(assert (forall ((x_70 Nat_1) (x_71 list_0) (x_72 Nat_1) (x_73 list_0))
	(=> (diseqlist_0 x_71 x_73)
	    (diseqlist_0 (cons_0 x_70 x_71) (cons_0 x_72 x_73)))))
(declare-datatypes ((list_1 0)) (((nil_1 ) (cons_1 (head_1 pair_0) (tail_1 list_1)))))
(declare-fun diseqlist_1 (list_1 list_1) Bool)
(declare-fun head_3 (pair_0 list_1) Bool)
(declare-fun tail_3 (list_1 list_1) Bool)
(declare-fun isnil_1 (list_1) Bool)
(declare-fun iscons_1 (list_1) Bool)
(assert (forall ((x_77 list_1) (x_75 pair_0) (x_76 list_1))
	(=> (= x_77 (cons_1 x_75 x_76))
	    (head_3 x_75 x_77))))
(assert (forall ((x_77 list_1) (x_75 pair_0) (x_76 list_1))
	(=> (= x_77 (cons_1 x_75 x_76))
	    (tail_3 x_76 x_77))))
(assert (isnil_1 nil_1))
(assert (forall ((x_78 pair_0) (x_79 list_1))
	(iscons_1 (cons_1 x_78 x_79))))
(assert (forall ((x_80 pair_0) (x_81 list_1))
	(diseqlist_1 nil_1 (cons_1 x_80 x_81))))
(assert (forall ((x_82 pair_0) (x_83 list_1))
	(diseqlist_1 (cons_1 x_82 x_83) nil_1)))
(assert (forall ((x_84 pair_0) (x_85 list_1) (x_86 pair_0) (x_87 list_1))
	(=> (diseqpair_0 x_84 x_86)
	    (diseqlist_1 (cons_1 x_84 x_85) (cons_1 x_86 x_87)))))
(assert (forall ((x_84 pair_0) (x_85 list_1) (x_86 pair_0) (x_87 list_1))
	(=> (diseqlist_1 x_85 x_87)
	    (diseqlist_1 (cons_1 x_84 x_85) (cons_1 x_86 x_87)))))
(declare-datatypes ((Nat_0 0)) (((zero_0 ) (succ_0 (p_0 Nat_0)))))
(declare-fun diseqNat_1 (Nat_0 Nat_0) Bool)
(declare-fun p_1 (Nat_0 Nat_0) Bool)
(declare-fun iszero_0 (Nat_0) Bool)
(declare-fun issucc_0 (Nat_0) Bool)
(assert (forall ((x_90 Nat_0) (x_89 Nat_0))
	(=> (= x_90 (succ_0 x_89))
	    (p_1 x_89 x_90))))
(assert (iszero_0 zero_0))
(assert (forall ((x_91 Nat_0))
	(issucc_0 (succ_0 x_91))))
(assert (forall ((x_92 Nat_0))
	(diseqNat_1 zero_0 (succ_0 x_92))))
(assert (forall ((x_93 Nat_0))
	(diseqNat_1 (succ_0 x_93) zero_0)))
(assert (forall ((x_94 Nat_0) (x_95 Nat_0))
	(=> (diseqNat_1 x_94 x_95)
	    (diseqNat_1 (succ_0 x_94) (succ_0 x_95)))))
(declare-fun unpair_0 (list_0 list_1) Bool)
(assert (forall ((x_0 list_1) (y_0 pair_0) (xys_0 list_1) (z_0 Nat_1) (y_1 Nat_1) (x_9 list_0) (x_10 list_0))
	(=>	(and (= x_9 (cons_0 z_0 (cons_0 y_1 x_10)))
			(unpair_0 x_10 xys_0)
			(= x_0 (cons_1 y_0 xys_0))
			(= y_0 (pair_1 z_0 y_1)))
		(unpair_0 x_9 x_0))))
(assert (forall ((x_0 list_1) (x_11 list_0))
	(=>	(and (= x_11 nil_0)
			(= x_0 nil_1))
		(unpair_0 x_11 x_0))))
(declare-fun plus_0 (Nat_0 Nat_0 Nat_0) Bool)
(assert (forall ((x_1 Nat_0) (y_2 Nat_0) (z_1 Nat_0) (x_12 Nat_0) (x_13 Nat_0))
	(=>	(and (= x_12 (succ_0 x_13))
			(plus_0 x_13 z_1 y_2)
			(= x_1 (succ_0 z_1)))
		(plus_0 x_12 x_1 y_2))))
(assert (forall ((x_1 Nat_0) (y_2 Nat_0) (x_14 Nat_0))
	(=>	(and (= x_14 y_2)
			(= x_1 zero_0))
		(plus_0 x_14 x_1 y_2))))
(declare-fun pairs_0 (list_1 list_0) Bool)
(assert (forall ((x_2 list_0) (y_3 Nat_1) (z_2 list_0) (y_4 Nat_1) (xs_0 list_0) (x_15 list_1) (x_16 list_1))
	(=>	(and (= x_15 (cons_1 (pair_1 y_3 y_4) x_16))
			(pairs_0 x_16 xs_0)
			(= x_2 (cons_0 y_3 z_2))
			(= z_2 (cons_0 y_4 xs_0)))
		(pairs_0 x_15 x_2))))
(assert (forall ((x_2 list_0) (y_3 Nat_1) (z_2 list_0) (x_17 list_1))
	(=>	(and (= x_17 nil_1)
			(= x_2 (cons_0 y_3 z_2))
			(= z_2 nil_0))
		(pairs_0 x_17 x_2))))
(assert (forall ((x_2 list_0) (x_18 list_1))
	(=>	(and (= x_18 nil_1)
			(= x_2 nil_0))
		(pairs_0 x_18 x_2))))
(declare-fun length_0 (Nat_0 list_0) Bool)
(assert (forall ((x_3 list_0) (y_5 Nat_1) (l_0 list_0) (x_19 Nat_0) (x_20 Nat_0) (x_21 Nat_0))
	(=>	(and (= x_19 x_21)
			(length_0 x_20 l_0)
			(plus_0 x_21 (succ_0 zero_0) x_20)
			(= x_3 (cons_0 y_5 l_0)))
		(length_0 x_19 x_3))))
(assert (forall ((x_3 list_0) (x_22 Nat_0))
	(=>	(and (= x_22 zero_0)
			(= x_3 nil_0))
		(length_0 x_22 x_3))))
(declare-fun even_0 (Bool Nat_0) Bool)
(assert (forall ((x_4 Nat_0) (y_6 Nat_0) (x_23 Bool) (x_24 Bool))
	(=>	(and (= x_23 (not x_24))
			(even_0 x_24 y_6)
			(= x_4 (succ_0 y_6)))
		(even_0 x_23 x_4))))
(assert (forall ((x_4 Nat_0) (x_25 Bool))
	(=>	(and (= x_25 true)
			(= x_4 zero_0))
		(even_0 x_25 x_4))))
(assert (forall ((x_5 Nat_0) (y_7 Nat_0) (z_3 Nat_0) (x_26 Nat_0) (x_27 Nat_0) (x_28 Nat_0) (x_29 Nat_0))
	(=>	(and (diseqNat_1 x_27 x_29)
			(plus_0 x_26 y_7 z_3)
			(plus_0 x_27 x_5 x_26)
			(plus_0 x_28 x_5 y_7)
			(plus_0 x_29 x_28 z_3))
		false)))
(assert (forall ((x_6 Nat_0) (y_8 Nat_0) (x_30 Nat_0) (x_31 Nat_0))
	(=>	(and (diseqNat_1 x_30 x_31)
			(plus_0 x_30 x_6 y_8)
			(plus_0 x_31 y_8 x_6))
		false)))
(assert (forall ((x_7 Nat_0) (x_32 Nat_0))
	(=>	(and (diseqNat_1 x_32 x_7)
			(plus_0 x_32 x_7 zero_0))
		false)))
(assert (forall ((x_8 Nat_0) (x_33 Nat_0))
	(=>	(and (diseqNat_1 x_33 x_8)
			(plus_0 x_33 zero_0 x_8))
		false)))
(assert (forall ((xs_1 list_0) (x_34 list_1) (x_35 list_0) (x_36 Nat_0) (x_37 Bool))
	(=>	(and (diseqlist_0 x_35 xs_1)
			(= zero_0 zero_0)
			(= x_37 true)
			(pairs_0 x_34 xs_1)
			(unpair_0 x_35 x_34)
			(length_0 x_36 xs_1)
			(even_0 x_37 x_36))
		false)))
(assert (forall ((xs_1 list_0) (x_38 list_1) (x_39 list_0) (x_40 Nat_0) (x_41 Bool))
	(=>	(and (diseqlist_0 x_39 xs_1)
			(= (succ_0 zero_0) zero_0)
			(= x_41 false)
			(pairs_0 x_38 xs_1)
			(unpair_0 x_39 x_38)
			(length_0 x_40 xs_1)
			(even_0 x_41 x_40))
		false)))
(check-sat)
